# Solution for model r5_t36_m8_7
# Finished Task: 31 / 36
# Makespan: 957.0, Total Distance: 1804.0, Total Time: 6.0389
# R O S F
0 0 23 0.0 0.0
1 1 17 0.0 0.0
2 2 11 0.0 0.0
3 3 18 0.0 0.0
4 4 12 0.0 0.0
5 2 -1 927.0 957.0
6 3 31 685.0 723.0
7 4 19 235.0 262.0
8 4 35 751.0 774.0
9 4 21 469.0 501.0
10 2 5 871.0 893.0
11 2 25 142.0 166.0
12 4 7 108.0 145.0
13 4 -1 877.0 900.0
14 -1 -1 -1.0 -1.0
15 4 8 719.0 743.0
16 -1 -1 -1.0 -1.0
17 1 36 481.0 501.0
18 3 33 237.0 275.0
19 4 27 297.0 317.0
20 4 15 578.0 604.0
21 4 20 550.0 578.0
22 -1 -1 -1.0 -1.0
23 0 40 382.0 407.0
24 3 6 645.0 665.0
25 2 29 375.0 404.0
26 1 -1 873.0 902.0
27 4 9 401.0 438.0
28 -1 -1 -1.0 -1.0
29 2 32 716.0 754.0
30 3 -1 910.0 930.0
31 3 38 779.0 799.0
32 2 10 804.0 829.0
33 3 24 579.0 609.0
34 -1 -1 -1.0 -1.0
35 4 13 813.0 838.0
36 1 26 791.0 815.0
37 0 -1 864.0 889.0
38 3 30 865.0 893.0
39 0 37 735.0 767.0
40 0 39 556.0 576.0
